
Gurobi 10.0.3 (linux64, gurobi_cl) logging started Wed Nov 15 13:16:16 2023

Set parameter LogFile to value "gurobi.log"
Restricted license - for non-production use only - expires 2024-10-28

Gurobi 10.0.3 (linux64, gurobi_cl) logging started Wed Nov 15 13:16:22 2023

Set parameter LogFile to value "gurobi.log"
Restricted license - for non-production use only - expires 2024-10-28

Gurobi 10.0.3 (linux64, gurobi_cl) logging started Wed Nov 15 13:16:38 2023

Set parameter LogFile to value "gurobi.log"
Restricted license - for non-production use only - expires 2024-10-28

Gurobi 10.0.3 (linux64, gurobi_cl) logging started Wed Nov 15 13:16:51 2023

Set parameter LogFile to value "gurobi.log"
Restricted license - for non-production use only - expires 2024-10-28

Gurobi 10.0.3 (linux64, gurobi_cl) logging started Wed Nov 15 13:17:15 2023

Set parameter LogFile to value "gurobi.log"
Restricted license - for non-production use only - expires 2024-10-28

Gurobi 10.0.3 (linux64, gurobi_cl) logging started Wed Nov 15 13:17:32 2023

Set parameter LogFile to value "gurobi.log"
Restricted license - for non-production use only - expires 2024-10-28

Gurobi 10.0.3 (linux64, gurobi_cl) logging started Wed Nov 15 13:18:04 2023

Set parameter LogFile to value "gurobi.log"
Restricted license - for non-production use only - expires 2024-10-28

Gurobi 10.0.3 (linux64, gurobi_cl) logging started Wed Nov 15 13:19:21 2023

Set parameter LogFile to value "gurobi.log"
Restricted license - for non-production use only - expires 2024-10-28

Gurobi 10.0.3 (linux64, gurobi_cl) logging started Wed Nov 15 13:23:26 2023

Set parameter LogFile to value "gurobi.log"
Restricted license - for non-production use only - expires 2024-10-28

Gurobi 10.0.3 (linux64, gurobi_cl) logging started Wed Nov 15 13:24:33 2023

Set parameter LogFile to value "gurobi.log"
Restricted license - for non-production use only - expires 2024-10-28

Gurobi 10.0.3 (linux64, gurobi_cl) logging started Wed Nov 15 13:26:57 2023

Set parameter LogFile to value "gurobi.log"
Restricted license - for non-production use only - expires 2024-10-28

Gurobi 10.0.3 (linux64, gurobi_cl) logging started Wed Nov 15 13:27:25 2023

Set parameter LogFile to value "gurobi.log"
Restricted license - for non-production use only - expires 2024-10-28
